NAME 
OBJSENSE MAX
ROWS
 N  OBJ
 L  packing[0]
 L  packing[1]
 L  packing[2]
 L  packing[3]
 L  packing[4]
 L  packing[5]
 L  packing[6]
 L  packing[7]
 L  packing[8]
 L  packing[9]
 L  packing[10]
 L  packing[11]
 L  packing[12]
 L  packing[13]
 L  packing[14]
 L  packing[15]
 L  packing[16]
 L  packing[17]
 L  packing[18]
 L  packing[19]
 L  packing[20]
 L  packing[21]
 L  packing[22]
 L  packing[23]
 L  packing[24]
 L  packing[25]
 L  packing[26]
 L  packing[27]
 L  packing[28]
 L  packing[29]
 L  packing[30]
 L  packing[31]
 L  packing[32]
 L  packing[33]
 L  packing[34]
 L  packing[35]
 L  packing[36]
 L  packing[37]
 L  packing[38]
 L  packing[39]
 L  packing[40]
 L  packing[41]
 L  packing[42]
 L  packing[43]
 L  packing[44]
 L  packing[45]
 L  packing[46]
 L  packing[47]
 L  packing[48]
 L  packing[49]
 L  R64     
COLUMNS
    MARKER    'MARKER'                 'INTORG'
    x[1]      OBJ       21
    x[1]      packing[0]  187
    x[1]      packing[1]  63
    x[1]      packing[2]  95
    x[1]      packing[4]  101
    x[1]      packing[5]  93
    x[1]      packing[6]  94
    x[1]      packing[7]  109
    x[1]      packing[8]  159
    x[1]      packing[10]  176
    x[1]      packing[11]  174
    x[1]      packing[12]  52
    x[1]      packing[14]  14
    x[1]      packing[16]  47
    x[1]      packing[17]  135
    x[1]      packing[18]  62
    x[1]      packing[19]  73
    x[1]      packing[20]  105
    x[1]      packing[22]  133
    x[1]      packing[23]  99
    x[1]      packing[24]  103
    x[1]      packing[26]  108
    x[1]      packing[27]  190
    x[1]      packing[28]  6
    x[1]      packing[29]  180
    x[1]      packing[32]  29
    x[1]      packing[33]  162
    x[1]      packing[34]  120
    x[1]      packing[35]  145
    x[1]      packing[37]  48
    x[1]      packing[38]  167
    x[1]      packing[39]  152
    x[1]      packing[40]  193
    x[1]      packing[41]  3
    x[1]      packing[43]  93
    x[1]      packing[44]  45
    x[1]      packing[45]  125
    x[1]      packing[46]  39
    x[1]      packing[48]  112
    x[1]      packing[49]  37
    x[2]      OBJ       105
    x[2]      packing[0]  189
    x[2]      packing[1]  78
    x[2]      packing[2]  62
    x[2]      packing[4]  55
    x[2]      packing[6]  15
    x[2]      packing[7]  165
    x[2]      packing[8]  89
    x[2]      packing[9]  99
    x[2]      packing[10]  114
    x[2]      packing[11]  134
    x[2]      packing[12]  55
    x[2]      packing[13]  22
    x[2]      packing[14]  165
    x[2]      packing[15]  192
    x[2]      packing[16]  50
    x[2]      packing[18]  89
    x[2]      packing[19]  98
    x[2]      packing[20]  175
    x[2]      packing[21]  87
    x[2]      packing[23]  178
    x[2]      packing[25]  111
    x[2]      packing[26]  105
    x[2]      packing[27]  143
    x[2]      packing[29]  198
    x[2]      packing[30]  15
    x[2]      packing[31]  42
    x[2]      packing[32]  57
    x[2]      packing[34]  82
    x[2]      packing[35]  190
    x[2]      packing[38]  85
    x[2]      packing[39]  57
    x[2]      packing[40]  84
    x[2]      packing[41]  83
    x[2]      packing[43]  167
    x[2]      packing[44]  153
    x[2]      packing[45]  125
    x[2]      packing[48]  40
    x[2]      packing[49]  114
    x[3]      OBJ       86
    x[3]      packing[0]  54
    x[3]      packing[1]  120
    x[3]      packing[2]  10
    x[3]      packing[4]  177
    x[3]      packing[5]  55
    x[3]      packing[8]  146
    x[3]      packing[9]  69
    x[3]      packing[10]  17
    x[3]      packing[11]  100
    x[3]      packing[13]  27
    x[3]      packing[15]  99
    x[3]      packing[16]  167
    x[3]      packing[17]  128
    x[3]      packing[18]  11
    x[3]      packing[19]  159
    x[3]      packing[20]  129
    x[3]      packing[21]  80
    x[3]      packing[22]  166
    x[3]      packing[23]  139
    x[3]      packing[24]  44
    x[3]      packing[25]  68
    x[3]      packing[26]  20
    x[3]      packing[27]  142
    x[3]      packing[28]  116
    x[3]      packing[29]  134
    x[3]      packing[30]  44
    x[3]      packing[31]  182
    x[3]      packing[32]  39
    x[3]      packing[33]  99
    x[3]      packing[35]  190
    x[3]      packing[36]  52
    x[3]      packing[37]  124
    x[3]      packing[40]  38
    x[3]      packing[42]  16
    x[3]      packing[43]  80
    x[3]      packing[44]  186
    x[3]      packing[47]  132
    x[3]      packing[48]  18
    x[3]      packing[49]  76
    x[4]      OBJ       185
    x[4]      packing[0]  106
    x[4]      packing[3]  153
    x[4]      packing[4]  65
    x[4]      packing[5]  135
    x[4]      packing[6]  180
    x[4]      packing[9]  74
    x[4]      packing[10]  25
    x[4]      packing[12]  142
    x[4]      packing[13]  84
    x[4]      packing[14]  11
    x[4]      packing[16]  135
    x[4]      packing[18]  25
    x[4]      packing[19]  66
    x[4]      packing[20]  51
    x[4]      packing[23]  90
    x[4]      packing[24]  77
    x[4]      packing[25]  172
    x[4]      packing[26]  182
    x[4]      packing[27]  91
    x[4]      packing[29]  194
    x[4]      packing[30]  40
    x[4]      packing[31]  42
    x[4]      packing[32]  146
    x[4]      packing[33]  65
    x[4]      packing[34]  164
    x[4]      packing[35]  21
    x[4]      packing[36]  31
    x[4]      packing[37]  95
    x[4]      packing[38]  96
    x[4]      packing[39]  130
    x[4]      packing[40]  23
    x[4]      packing[42]  144
    x[4]      packing[43]  129
    x[4]      packing[44]  160
    x[4]      packing[45]  101
    x[4]      packing[46]  31
    x[4]      packing[47]  164
    x[4]      packing[49]  26
    x[4]      R64       1
    x[5]      OBJ       118
    x[5]      packing[0]  198
    x[5]      packing[3]  102
    x[5]      packing[4]  55
    x[5]      packing[5]  154
    x[5]      packing[6]  62
    x[5]      packing[7]  145
    x[5]      packing[8]  168
    x[5]      packing[9]  173
    x[5]      packing[10]  49
    x[5]      packing[11]  45
    x[5]      packing[12]  97
    x[5]      packing[13]  162
    x[5]      packing[14]  182
    x[5]      packing[15]  82
    x[5]      packing[16]  36
    x[5]      packing[17]  129
    x[5]      packing[18]  123
    x[5]      packing[20]  152
    x[5]      packing[21]  60
    x[5]      packing[22]  61
    x[5]      packing[23]  111
    x[5]      packing[24]  17
    x[5]      packing[27]  13
    x[5]      packing[28]  157
    x[5]      packing[29]  148
    x[5]      packing[30]  12
    x[5]      packing[31]  88
    x[5]      packing[32]  128
    x[5]      packing[33]  23
    x[5]      packing[34]  65
    x[5]      packing[35]  183
    x[5]      packing[36]  82
    x[5]      packing[37]  93
    x[5]      packing[39]  93
    x[5]      packing[41]  117
    x[5]      packing[43]  22
    x[5]      packing[45]  47
    x[5]      packing[46]  125
    x[5]      packing[48]  50
    x[5]      packing[49]  1
    x[6]      OBJ       158
    x[6]      packing[0]  112
    x[6]      packing[2]  152
    x[6]      packing[3]  193
    x[6]      packing[4]  119
    x[6]      packing[5]  87
    x[6]      packing[6]  118
    x[6]      packing[7]  66
    x[6]      packing[9]  170
    x[6]      packing[10]  46
    x[6]      packing[11]  116
    x[6]      packing[12]  70
    x[6]      packing[14]  53
    x[6]      packing[15]  21
    x[6]      packing[16]  131
    x[6]      packing[17]  68
    x[6]      packing[18]  75
    x[6]      packing[19]  117
    x[6]      packing[20]  63
    x[6]      packing[21]  28
    x[6]      packing[23]  3
    x[6]      packing[24]  67
    x[6]      packing[25]  94
    x[6]      packing[26]  177
    x[6]      packing[29]  51
    x[6]      packing[30]  98
    x[6]      packing[31]  12
    x[6]      packing[32]  146
    x[6]      packing[34]  77
    x[6]      packing[36]  174
    x[6]      packing[37]  105
    x[6]      packing[38]  185
    x[6]      packing[41]  82
    x[6]      packing[42]  90
    x[6]      packing[44]  170
    x[6]      packing[45]  169
    x[6]      packing[46]  173
    x[6]      packing[47]  168
    x[6]      packing[48]  102
    x[6]      packing[49]  10
    x[6]      R64       1
    x[7]      OBJ       168
    x[7]      packing[0]  162
    x[7]      packing[2]  129
    x[7]      packing[3]  146
    x[7]      packing[4]  20
    x[7]      packing[5]  175
    x[7]      packing[6]  28
    x[7]      packing[7]  166
    x[7]      packing[8]  109
    x[7]      packing[11]  86
    x[7]      packing[12]  76
    x[7]      packing[15]  38
    x[7]      packing[16]  157
    x[7]      packing[17]  128
    x[7]      packing[20]  162
    x[7]      packing[24]  152
    x[7]      packing[25]  164
    x[7]      packing[26]  88
    x[7]      packing[27]  34
    x[7]      packing[28]  132
    x[7]      packing[29]  112
    x[7]      packing[30]  126
    x[7]      packing[31]  52
    x[7]      packing[32]  160
    x[7]      packing[33]  109
    x[7]      packing[34]  136
    x[7]      packing[35]  193
    x[7]      packing[36]  104
    x[7]      packing[37]  95
    x[7]      packing[38]  36
    x[7]      packing[41]  170
    x[7]      packing[42]  97
    x[7]      packing[43]  67
    x[7]      packing[44]  174
    x[7]      packing[45]  76
    x[7]      packing[47]  118
    x[7]      packing[48]  120
    x[7]      packing[49]  31
    x[8]      OBJ       149
    x[8]      packing[0]  92
    x[8]      packing[1]  76
    x[8]      packing[2]  46
    x[8]      packing[3]  152
    x[8]      packing[4]  165
    x[8]      packing[5]  170
    x[8]      packing[6]  187
    x[8]      packing[7]  144
    x[8]      packing[9]  102
    x[8]      packing[11]  165
    x[8]      packing[12]  107
    x[8]      packing[13]  97
    x[8]      packing[14]  135
    x[8]      packing[15]  2
    x[8]      packing[17]  30
    x[8]      packing[19]  5
    x[8]      packing[22]  172
    x[8]      packing[25]  153
    x[8]      packing[26]  191
    x[8]      packing[27]  102
    x[8]      packing[28]  192
    x[8]      packing[29]  177
    x[8]      packing[30]  176
    x[8]      packing[31]  34
    x[8]      packing[32]  31
    x[8]      packing[33]  134
    x[8]      packing[34]  123
    x[8]      packing[35]  75
    x[8]      packing[36]  6
    x[8]      packing[37]  178
    x[8]      packing[39]  197
    x[8]      packing[41]  52
    x[8]      packing[42]  179
    x[8]      packing[43]  191
    x[8]      packing[45]  126
    x[8]      packing[46]  85
    x[8]      packing[47]  166
    x[8]      packing[48]  190
    x[8]      packing[49]  26
    x[9]      OBJ       165
    x[9]      packing[1]  107
    x[9]      packing[2]  149
    x[9]      packing[3]  38
    x[9]      packing[4]  127
    x[9]      packing[6]  190
    x[9]      packing[7]  122
    x[9]      packing[9]  144
    x[9]      packing[10]  172
    x[9]      packing[11]  13
    x[9]      packing[12]  31
    x[9]      packing[14]  154
    x[9]      packing[15]  116
    x[9]      packing[16]  79
    x[9]      packing[17]  185
    x[9]      packing[19]  84
    x[9]      packing[20]  100
    x[9]      packing[21]  192
    x[9]      packing[22]  148
    x[9]      packing[24]  69
    x[9]      packing[25]  188
    x[9]      packing[26]  10
    x[9]      packing[27]  57
    x[9]      packing[28]  153
    x[9]      packing[29]  82
    x[9]      packing[30]  67
    x[9]      packing[31]  91
    x[9]      packing[32]  112
    x[9]      packing[33]  63
    x[9]      packing[36]  72
    x[9]      packing[38]  79
    x[9]      packing[39]  34
    x[9]      packing[40]  168
    x[9]      packing[42]  24
    x[9]      packing[43]  144
    x[9]      packing[44]  22
    x[9]      packing[47]  137
    x[9]      packing[48]  195
    x[9]      packing[49]  27
    x[10]     OBJ       46
    x[10]     packing[0]  54
    x[10]     packing[1]  104
    x[10]     packing[2]  164
    x[10]     packing[3]  97
    x[10]     packing[4]  189
    x[10]     packing[5]  142
    x[10]     packing[6]  145
    x[10]     packing[7]  179
    x[10]     packing[9]  124
    x[10]     packing[10]  114
    x[10]     packing[11]  108
    x[10]     packing[14]  100
    x[10]     packing[15]  25
    x[10]     packing[17]  12
    x[10]     packing[19]  108
    x[10]     packing[20]  199
    x[10]     packing[21]  147
    x[10]     packing[22]  56
    x[10]     packing[23]  44
    x[10]     packing[24]  35
    x[10]     packing[25]  195
    x[10]     packing[26]  127
    x[10]     packing[27]  149
    x[10]     packing[29]  176
    x[10]     packing[30]  165
    x[10]     packing[31]  86
    x[10]     packing[32]  151
    x[10]     packing[34]  87
    x[10]     packing[35]  23
    x[10]     packing[36]  138
    x[10]     packing[37]  37
    x[10]     packing[39]  173
    x[10]     packing[40]  29
    x[10]     packing[43]  81
    x[10]     packing[44]  13
    x[10]     packing[45]  113
    x[10]     packing[47]  89
    x[10]     packing[49]  123
    x[11]     OBJ       123
    x[11]     packing[0]  160
    x[11]     packing[1]  60
    x[11]     packing[2]  85
    x[11]     packing[3]  114
    x[11]     packing[4]  131
    x[11]     packing[8]  194
    x[11]     packing[9]  73
    x[11]     packing[11]  39
    x[11]     packing[12]  77
    x[11]     packing[13]  92
    x[11]     packing[14]  100
    x[11]     packing[15]  44
    x[11]     packing[16]  174
    x[11]     packing[17]  107
    x[11]     packing[18]  55
    x[11]     packing[19]  163
    x[11]     packing[20]  40
    x[11]     packing[21]  186
    x[11]     packing[22]  188
    x[11]     packing[23]  11
    x[11]     packing[24]  93
    x[11]     packing[25]  164
    x[11]     packing[26]  57
    x[11]     packing[30]  63
    x[11]     packing[31]  92
    x[11]     packing[32]  179
    x[11]     packing[34]  21
    x[11]     packing[36]  61
    x[11]     packing[37]  75
    x[11]     packing[38]  198
    x[11]     packing[40]  57
    x[11]     packing[41]  183
    x[11]     packing[42]  13
    x[11]     packing[43]  68
    x[11]     packing[44]  40
    x[11]     packing[45]  124
    x[11]     packing[46]  101
    x[11]     packing[49]  155
    x[12]     OBJ       37
    x[12]     packing[0]  118
    x[12]     packing[1]  191
    x[12]     packing[3]  150
    x[12]     packing[5]  64
    x[12]     packing[6]  176
    x[12]     packing[8]  119
    x[12]     packing[9]  188
    x[12]     packing[10]  192
    x[12]     packing[11]  87
    x[12]     packing[12]  24
    x[12]     packing[13]  148
    x[12]     packing[14]  188
    x[12]     packing[16]  149
    x[12]     packing[18]  34
    x[12]     packing[19]  8
    x[12]     packing[21]  137
    x[12]     packing[22]  48
    x[12]     packing[23]  150
    x[12]     packing[24]  157
    x[12]     packing[25]  177
    x[12]     packing[26]  190
    x[12]     packing[27]  148
    x[12]     packing[28]  184
    x[12]     packing[29]  191
    x[12]     packing[30]  150
    x[12]     packing[31]  127
    x[12]     packing[32]  137
    x[12]     packing[33]  58
    x[12]     packing[34]  99
    x[12]     packing[35]  182
    x[12]     packing[36]  15
    x[12]     packing[37]  35
    x[12]     packing[38]  99
    x[12]     packing[39]  114
    x[12]     packing[40]  190
    x[12]     packing[42]  127
    x[12]     packing[46]  2
    x[12]     packing[47]  164
    x[12]     packing[48]  173
    x[12]     packing[49]  23
    x[13]     OBJ       24
    x[13]     packing[0]  150
    x[13]     packing[2]  181
    x[13]     packing[3]  183
    x[13]     packing[5]  108
    x[13]     packing[7]  117
    x[13]     packing[8]  31
    x[13]     packing[9]  197
    x[13]     packing[10]  4
    x[13]     packing[11]  152
    x[13]     packing[12]  23
    x[13]     packing[13]  115
    x[13]     packing[14]  185
    x[13]     packing[15]  108
    x[13]     packing[18]  45
    x[13]     packing[20]  12
    x[13]     packing[21]  131
    x[13]     packing[22]  95
    x[13]     packing[23]  32
    x[13]     packing[24]  103
    x[13]     packing[26]  24
    x[13]     packing[27]  148
    x[13]     packing[28]  145
    x[13]     packing[30]  164
    x[13]     packing[32]  60
    x[13]     packing[33]  103
    x[13]     packing[35]  12
    x[13]     packing[36]  166
    x[13]     packing[37]  63
    x[13]     packing[38]  10
    x[13]     packing[39]  83
    x[13]     packing[41]  16
    x[13]     packing[42]  172
    x[13]     packing[45]  44
    x[13]     packing[46]  76
    x[13]     packing[47]  62
    x[13]     packing[48]  160
    x[13]     packing[49]  131
    x[14]     OBJ       9
    x[14]     packing[0]  66
    x[14]     packing[1]  115
    x[14]     packing[2]  11
    x[14]     packing[4]  8
    x[14]     packing[6]  6
    x[14]     packing[7]  68
    x[14]     packing[9]  124
    x[14]     packing[10]  102
    x[14]     packing[11]  139
    x[14]     packing[12]  166
    x[14]     packing[13]  117
    x[14]     packing[14]  50
    x[14]     packing[15]  74
    x[14]     packing[16]  89
    x[14]     packing[17]  140
    x[14]     packing[18]  140
    x[14]     packing[20]  177
    x[14]     packing[21]  42
    x[14]     packing[22]  126
    x[14]     packing[23]  123
    x[14]     packing[24]  69
    x[14]     packing[26]  3
    x[14]     packing[28]  38
    x[14]     packing[29]  27
    x[14]     packing[30]  41
    x[14]     packing[31]  53
    x[14]     packing[33]  103
    x[14]     packing[35]  44
    x[14]     packing[36]  94
    x[14]     packing[37]  185
    x[14]     packing[38]  88
    x[14]     packing[39]  123
    x[14]     packing[40]  54
    x[14]     packing[42]  190
    x[14]     packing[43]  184
    x[14]     packing[44]  165
    x[14]     packing[45]  50
    x[14]     packing[46]  3
    x[14]     packing[47]  195
    x[14]     packing[48]  26
    x[14]     packing[49]  88
    x[15]     OBJ       77
    x[15]     packing[0]  164
    x[15]     packing[1]  175
    x[15]     packing[2]  48
    x[15]     packing[3]  10
    x[15]     packing[4]  4
    x[15]     packing[5]  144
    x[15]     packing[6]  14
    x[15]     packing[7]  100
    x[15]     packing[8]  85
    x[15]     packing[9]  47
    x[15]     packing[10]  107
    x[15]     packing[12]  154
    x[15]     packing[14]  12
    x[15]     packing[16]  153
    x[15]     packing[17]  129
    x[15]     packing[18]  86
    x[15]     packing[19]  199
    x[15]     packing[20]  177
    x[15]     packing[22]  24
    x[15]     packing[23]  61
    x[15]     packing[24]  143
    x[15]     packing[26]  91
    x[15]     packing[28]  71
    x[15]     packing[29]  184
    x[15]     packing[30]  108
    x[15]     packing[31]  182
    x[15]     packing[32]  91
    x[15]     packing[34]  108
    x[15]     packing[35]  195
    x[15]     packing[36]  61
    x[15]     packing[37]  42
    x[15]     packing[38]  33
    x[15]     packing[39]  145
    x[15]     packing[40]  44
    x[15]     packing[41]  34
    x[15]     packing[42]  164
    x[15]     packing[43]  188
    x[15]     packing[44]  82
    x[15]     packing[45]  66
    x[15]     packing[46]  19
    x[15]     packing[49]  111
    x[16]     OBJ       81
    x[16]     packing[0]  96
    x[16]     packing[1]  173
    x[16]     packing[2]  67
    x[16]     packing[3]  171
    x[16]     packing[5]  142
    x[16]     packing[6]  67
    x[16]     packing[7]  123
    x[16]     packing[8]  145
    x[16]     packing[10]  96
    x[16]     packing[13]  89
    x[16]     packing[14]  160
    x[16]     packing[15]  34
    x[16]     packing[16]  70
    x[16]     packing[17]  181
    x[16]     packing[19]  32
    x[16]     packing[21]  59
    x[16]     packing[22]  152
    x[16]     packing[25]  25
    x[16]     packing[27]  71
    x[16]     packing[28]  68
    x[16]     packing[29]  45
    x[16]     packing[31]  40
    x[16]     packing[32]  179
    x[16]     packing[33]  121
    x[16]     packing[34]  69
    x[16]     packing[36]  133
    x[16]     packing[37]  125
    x[16]     packing[38]  120
    x[16]     packing[39]  157
    x[16]     packing[40]  62
    x[16]     packing[41]  184
    x[16]     packing[42]  3
    x[16]     packing[43]  105
    x[16]     packing[44]  184
    x[16]     packing[45]  85
    x[16]     packing[46]  14
    x[16]     packing[47]  30
    x[16]     packing[49]  143
    x[17]     OBJ       157
    x[17]     packing[0]  66
    x[17]     packing[1]  145
    x[17]     packing[2]  60
    x[17]     packing[3]  78
    x[17]     packing[4]  74
    x[17]     packing[5]  165
    x[17]     packing[6]  105
    x[17]     packing[9]  73
    x[17]     packing[10]  97
    x[17]     packing[14]  100
    x[17]     packing[15]  81
    x[17]     packing[21]  85
    x[17]     packing[23]  9
    x[17]     packing[24]  67
    x[17]     packing[26]  55
    x[17]     packing[27]  83
    x[17]     packing[28]  180
    x[17]     packing[29]  89
    x[17]     packing[32]  50
    x[17]     packing[33]  31
    x[17]     packing[34]  166
    x[17]     packing[35]  119
    x[17]     packing[36]  48
    x[17]     packing[37]  24
    x[17]     packing[38]  112
    x[17]     packing[39]  116
    x[17]     packing[40]  122
    x[17]     packing[41]  107
    x[17]     packing[42]  39
    x[17]     packing[44]  21
    x[17]     packing[45]  82
    x[17]     packing[46]  47
    x[17]     packing[47]  140
    x[17]     packing[48]  76
    x[17]     R64       1
    x[18]     OBJ       111
    x[18]     packing[0]  63
    x[18]     packing[1]  12
    x[18]     packing[2]  64
    x[18]     packing[4]  98
    x[18]     packing[6]  71
    x[18]     packing[7]  170
    x[18]     packing[8]  159
    x[18]     packing[9]  178
    x[18]     packing[12]  8
    x[18]     packing[13]  34
    x[18]     packing[14]  168
    x[18]     packing[15]  115
    x[18]     packing[17]  69
    x[18]     packing[18]  85
    x[18]     packing[19]  49
    x[18]     packing[20]  123
    x[18]     packing[21]  191
    x[18]     packing[22]  90
    x[18]     packing[23]  144
    x[18]     packing[24]  6
    x[18]     packing[25]  93
    x[18]     packing[27]  187
    x[18]     packing[29]  52
    x[18]     packing[30]  167
    x[18]     packing[33]  177
    x[18]     packing[35]  136
    x[18]     packing[37]  80
    x[18]     packing[38]  33
    x[18]     packing[39]  123
    x[18]     packing[40]  98
    x[18]     packing[42]  184
    x[18]     packing[43]  133
    x[18]     packing[44]  19
    x[18]     packing[45]  136
    x[18]     packing[46]  118
    x[18]     packing[47]  56
    x[18]     packing[48]  82
    x[18]     packing[49]  125
    x[18]     R64       1
    x[19]     OBJ       50
    x[19]     packing[0]  127
    x[19]     packing[2]  41
    x[19]     packing[3]  101
    x[19]     packing[4]  47
    x[19]     packing[5]  7
    x[19]     packing[6]  162
    x[19]     packing[7]  187
    x[19]     packing[9]  38
    x[19]     packing[10]  1
    x[19]     packing[11]  110
    x[19]     packing[12]  21
    x[19]     packing[13]  183
    x[19]     packing[14]  10
    x[19]     packing[15]  145
    x[19]     packing[16]  130
    x[19]     packing[18]  70
    x[19]     packing[19]  174
    x[19]     packing[20]  195
    x[19]     packing[21]  170
    x[19]     packing[22]  29
    x[19]     packing[24]  167
    x[19]     packing[25]  187
    x[19]     packing[26]  107
    x[19]     packing[27]  30
    x[19]     packing[28]  3
    x[19]     packing[29]  115
    x[19]     packing[30]  136
    x[19]     packing[31]  96
    x[19]     packing[32]  161
    x[19]     packing[33]  107
    x[19]     packing[34]  124
    x[19]     packing[36]  190
    x[19]     packing[37]  144
    x[19]     packing[40]  95
    x[19]     packing[42]  49
    x[19]     packing[43]  3
    x[19]     packing[44]  140
    x[19]     packing[45]  168
    x[19]     packing[46]  38
    x[19]     packing[47]  16
    x[19]     packing[48]  114
    x[19]     packing[49]  142
    x[20]     OBJ       130
    x[20]     packing[2]  76
    x[20]     packing[3]  165
    x[20]     packing[4]  47
    x[20]     packing[8]  123
    x[20]     packing[9]  113
    x[20]     packing[10]  144
    x[20]     packing[12]  134
    x[20]     packing[14]  48
    x[20]     packing[15]  41
    x[20]     packing[16]  5
    x[20]     packing[17]  191
    x[20]     packing[18]  180
    x[20]     packing[19]  146
    x[20]     packing[20]  97
    x[20]     packing[21]  2
    x[20]     packing[23]  53
    x[20]     packing[24]  138
    x[20]     packing[25]  184
    x[20]     packing[27]  8
    x[20]     packing[29]  169
    x[20]     packing[31]  121
    x[20]     packing[32]  70
    x[20]     packing[35]  138
    x[20]     packing[36]  111
    x[20]     packing[37]  130
    x[20]     packing[38]  19
    x[20]     packing[39]  25
    x[20]     packing[40]  143
    x[20]     packing[41]  85
    x[20]     packing[42]  134
    x[20]     packing[44]  45
    x[20]     packing[45]  39
    x[20]     packing[46]  159
    x[20]     packing[48]  166
    x[20]     packing[49]  189
    x[20]     R64       1
    MARKER    'MARKER'                 'INTEND'
RHS
    RHS1      packing[0]  1082
    RHS1      packing[1]  710
    RHS1      packing[2]  720
    RHS1      packing[3]  927
    RHS1      packing[4]  741
    RHS1      packing[5]  821
    RHS1      packing[6]  810
    RHS1      packing[7]  931
    RHS1      packing[8]  764
    RHS1      packing[9]  993
    RHS1      packing[10]  728
    RHS1      packing[11]  734
    RHS1      packing[12]  619
    RHS1      packing[13]  585
    RHS1      packing[14]  918
    RHS1      packing[15]  609
    RHS1      packing[16]  786
    RHS1      packing[17]  816
    RHS1      packing[18]  540
    RHS1      packing[19]  741
    RHS1      packing[20]  979
    RHS1      packing[21]  799
    RHS1      packing[22]  744
    RHS1      packing[23]  624
    RHS1      packing[24]  754
    RHS1      packing[25]  988
    RHS1      packing[26]  768
    RHS1      packing[27]  798
    RHS1      packing[28]  723
    RHS1      packing[29]  1162
    RHS1      packing[30]  786
    RHS1      packing[31]  670
    RHS1      packing[32]  963
    RHS1      packing[33]  678
    RHS1      packing[34]  721
    RHS1      packing[35]  923
    RHS1      packing[36]  769
    RHS1      packing[37]  839
    RHS1      packing[38]  680
    RHS1      packing[39]  861
    RHS1      packing[40]  700
    RHS1      packing[41]  558
    RHS1      packing[42]  813
    RHS1      packing[43]  828
    RHS1      packing[44]  810
    RHS1      packing[45]  838
    RHS1      packing[46]  515
    RHS1      packing[47]  819
    RHS1      packing[48]  812
    RHS1      packing[49]  789
    RHS1      R64       4
BOUNDS
 BV BND1      x[1]    
 BV BND1      x[2]    
 BV BND1      x[3]    
 BV BND1      x[4]    
 BV BND1      x[5]    
 BV BND1      x[6]    
 BV BND1      x[7]    
 BV BND1      x[8]    
 BV BND1      x[9]    
 BV BND1      x[10]   
 BV BND1      x[11]   
 BV BND1      x[12]   
 BV BND1      x[13]   
 BV BND1      x[14]   
 BV BND1      x[15]   
 BV BND1      x[16]   
 BV BND1      x[17]   
 BV BND1      x[18]   
 BV BND1      x[19]   
 BV BND1      x[20]   
ENDATA
